Running for instance ./models/c105.txt
Generating routes...
Execution time:  12.462662  seconds
Academic license - for non-commercial use only
Warning: constraint name "Cliente esta na rota x1" has a space
Optimize a model with 26 rows, 10000 columns and 57646 nonzeros
Variable types: 0 continuous, 10000 integer (0 binary)
Coefficient statistics:
  Matrix range     [1e+00, 1e+00]
  Objective range  [2e+01, 2e+02]
  Bounds range     [1e+00, 1e+00]
  RHS range        [1e+00, 2e+01]
Found heuristic solution: objective 569.3865582
Presolve removed 1 rows and 273 columns
Presolve time: 0.06s
Presolved: 25 rows, 9727 columns, 46322 nonzeros
Variable types: 0 continuous, 9727 integer (9727 binary)

Root relaxation: objective 2.300037e+02, 125 iterations, 0.01 seconds

    Nodes    |    Current Node    |     Objective Bounds      |     Work
 Expl Unexpl |  Obj  Depth IntInf | Incumbent    BestBd   Gap | It/Node Time

     0     0  230.00370    0   18  569.38656  230.00370  59.6%     -    0s
H    0     0                     304.9828079  230.00370  24.6%     -    0s
     0     0  230.00370    0   18  304.98281  230.00370  24.6%     -    0s
     0     2  230.00370    0   18  304.98281  230.00370  24.6%     -    0s
*   12    14               3     273.0235993  240.03947  12.1%  13.8    0s
*   44    16              12     270.9951896  248.36088  8.35%   8.8    0s
*   66    15               7     267.6993207  255.82327  4.44%   8.2    0s
*   67     7               5     262.3650806  255.82327  2.49%   8.3    0s

Explored 76 nodes (698 simplex iterations) in 0.30 seconds
Thread count was 8 (of 8 available processors)

Solution count 6: 262.365 267.699 270.995 ... 569.387

Optimal solution found (tolerance 1.00e-04)
Best objective 2.623650805976e+02, best bound 2.623650805976e+02, gap 0.0000%

Routes:
10 11 12 4
20 24 25 23 22 21
5 3 7 8 9 6 2 1
13 17 18 19 15 16 14

Distance: 262.365080598
Execution time:  13.646102  seconds
